dates = {'2022-08-21','2022-08-22','2022-08-23','2022-08-24','2022-08-25','2022-08-26','2022-08-27','2022-08-28','2022-08-29','2022-08-30','2022-08-31','2022-09-01','2022-09-02','2022-09-03','2022-09-04','2022-09-05','2022-09-06','2022-09-07','2022-09-08','2022-09-09'};

6daysOfWeek = [Sunday,Monday,Tuesday,Wednesday,Thursday,Friday,Saturday,Sunday,Monday,Tuesday,Wednesday,Thursday,Friday,Saturday,Sunday,Monday,Tuesday,Wednesday,Thursday,Friday];

% For this week, how many people will be here.
numPeople = [25,25,25,25,25,25,25,25,25,25,25,25,25,25,25,25,25,25,25,25];

% Physical workers need 50 to 100 % more nutrients per day.
numPhysicalWorkers = [13.0,13.0,13.0,13.0,13.0,13.0,13.0,13.0,13.0,13.0,13.0,13.0,13.0,13.0,13.0,13.0,13.0,13.0
,13.0,13.0];

% Males need +25% more nutrients per day.
numMen = [19,19,19,19,19,19,19,19,19,19,19,19,19,19,19,19,19,19,19,19];

% Num people who do not eat categories. contains = {none, meat, milk, gluten, egg, nut, seed, sugars}
numRefusals = [| 0,0,0,0,2,0,2,3 | 0,0,0,0,2,0,2,3 | 0,0,0,0,2,0,2,3 | 0,0,0,0,2,0,2,3 | 0,0,0,0,2,0,2,3 | 0,0,0,0,2,0,2,3 | 0,0,0,0,2,0,2,3 | 0,0,0,0,2,0,2,3 | 0,0,0,0,2,0,2,3 | 0,0,0,0,2,0,2,3 | 0,0,0,0,2,0,2,3 | 0,0,0,0,2,0,2,3 | 0,0,0,0,2,0,2,3 | 0,0,0,0,2,0,2,3 | 0,0,0,0,2,0,2,3 | 0,0,0,0,2,0,2,3 | 0,0,0,0,2,0,2,3 | 0,0,0,0,2,0,2,3 | 0,0,0,0,2,0,2,3 | 0,0,0,0,2,0,2,3 |];

